p cnf 224 1750
114 2 121 9 170 58 171 59 0
-59 -2 0
-59 -114 0
-171 -2 0
-171 -114 0
-59 -58 0
-59 -170 0
-171 -58 0
-171 -170 0
-59 -9 0
-59 -121 0
-171 -9 0
-171 -121 0
-2 -58 0
-59 -2 0
-59 -2 0
-59 -2 0
-2 -9 0
-2 -121 0
-114 -9 0
-114 -121 0
-58 -9 0
-58 -121 0
-170 -9 0
-170 -121 0
-115 0
-3 0
-122 0
-10 0
-171 0
-59 0
-172 0
-60 0
63 175 6 118 0
63 175 62 174 0
63 175 13 125 0
6 118 62 174 0
6 118 13 125 0
62 174 13 125 0
-63 -6 -62 -13 0
-63 -6 -62 -125 0
-63 -6 -174 -13 0
-63 -6 -174 -125 0
-63 -118 -62 -13 0
-63 -118 -62 -125 0
-63 -118 -174 -13 0
-63 -118 -174 -125 0
-175 -6 -62 -13 0
-175 -6 -62 -125 0
-175 -6 -174 -13 0
-175 -6 -174 -125 0
-175 -118 -62 -13 0
-175 -118 -62 -125 0
-175 -118 -174 -13 0
-175 -118 -174 -125 0
64 176 7 119 0
64 176 63 175 0
64 176 14 126 0
7 119 63 175 0
7 119 14 126 0
63 175 14 126 0
-64 -7 -63 -14 0
-64 -7 -63 -126 0
-64 -7 -175 -14 0
-64 -7 -175 -126 0
-64 -119 -63 -14 0
-64 -119 -63 -126 0
-64 -119 -175 -14 0
-64 -119 -175 -126 0
-176 -7 -63 -14 0
-176 -7 -63 -126 0
-176 -7 -175 -14 0
-176 -7 -175 -126 0
-176 -119 -63 -14 0
-176 -119 -63 -126 0
-176 -119 -175 -14 0
-176 -119 -175 -126 0
-122 0
-10 0
-129 0
-17 0
-179 0
-67 0
-180 0
-68 0
69 181 11 123 68 180 0
69 181 11 123 18 130 0
69 181 68 180 18 130 0
11 123 68 180 18 130 0
-69 -11 -68 0
-181 -11 -68 0
-69 -11 -180 0
-181 -11 -180 0
-69 -123 -68 0
-181 -123 -68 0
-69 -123 -180 0
-181 -123 -180 0
-69 -11 -18 0
-181 -11 -18 0
-69 -11 -130 0
-181 -11 -130 0
-69 -123 -18 0
-181 -123 -18 0
-69 -123 -130 0
-181 -123 -130 0
-69 -68 -18 0
-181 -68 -18 0
-69 -68 -130 0
-181 -68 -130 0
-69 -180 -18 0
-181 -180 -18 0
-69 -180 -130 0
-181 -180 -130 0
-11 -68 -18 0
-123 -68 -18 0
-11 -68 -130 0
-123 -68 -130 0
-11 -180 -18 0
-123 -180 -18 0
-11 -180 -130 0
-123 -180 -130 0
126 14 133 21 183 71 184 72 0
-72 -14 0
-72 -126 0
-184 -14 0
-184 -126 0
-72 -71 0
-72 -183 0
-184 -71 0
-184 -183 0
-72 -21 0
-72 -133 0
-184 -21 0
-184 -133 0
-14 -71 0
-72 -14 0
-72 -14 0
-72 -14 0
-14 -21 0
-14 -133 0
-126 -21 0
-126 -133 0
-71 -21 0
-71 -133 0
-183 -21 0
-183 -133 0
127 15 134 22 185 73 186 74 0
-74 -15 0
-74 -127 0
-186 -15 0
-186 -127 0
-74 -73 0
-74 -185 0
-186 -73 0
-186 -185 0
-74 -22 0
-74 -134 0
-186 -22 0
-186 -134 0
-15 -73 0
-74 -15 0
-74 -15 0
-74 -15 0
-15 -22 0
-15 -134 0
-127 -22 0
-127 -134 0
-73 -22 0
-73 -134 0
-185 -22 0
-185 -134 0
76 188 17 129 0
76 188 75 187 0
76 188 24 136 0
17 129 75 187 0
17 129 24 136 0
75 187 24 136 0
-76 -17 -75 -24 0
-76 -17 -75 -136 0
-76 -17 -187 -24 0
-76 -17 -187 -136 0
-76 -129 -75 -24 0
-76 -129 -75 -136 0
-76 -129 -187 -24 0
-76 -129 -187 -136 0
-188 -17 -75 -24 0
-188 -17 -75 -136 0
-188 -17 -187 -24 0
-188 -17 -187 -136 0
-188 -129 -75 -24 0
-188 -129 -75 -136 0
-188 -129 -187 -24 0
-188 -129 -187 -136 0
78 190 19 131 77 189 0
78 190 19 131 26 138 0
78 190 77 189 26 138 0
19 131 77 189 26 138 0
-78 -19 -77 0
-190 -19 -77 0
-78 -19 -189 0
-190 -19 -189 0
-78 -131 -77 0
-190 -131 -77 0
-78 -131 -189 0
-190 -131 -189 0
-78 -19 -26 0
-190 -19 -26 0
-78 -19 -138 0
-190 -19 -138 0
-78 -131 -26 0
-190 -131 -26 0
-78 -131 -138 0
-190 -131 -138 0
-78 -77 -26 0
-190 -77 -26 0
-78 -77 -138 0
-190 -77 -138 0
-78 -189 -26 0
-190 -189 -26 0
-78 -189 -138 0
-190 -189 -138 0
-19 -77 -26 0
-131 -77 -26 0
-19 -77 -138 0
-131 -77 -138 0
-19 -189 -26 0
-131 -189 -26 0
-19 -189 -138 0
-131 -189 -138 0
79 191 20 132 0
79 191 78 190 0
79 191 27 139 0
20 132 78 190 0
20 132 27 139 0
78 190 27 139 0
-79 -20 -78 -27 0
-79 -20 -78 -139 0
-79 -20 -190 -27 0
-79 -20 -190 -139 0
-79 -132 -78 -27 0
-79 -132 -78 -139 0
-79 -132 -190 -27 0
-79 -132 -190 -139 0
-191 -20 -78 -27 0
-191 -20 -78 -139 0
-191 -20 -190 -27 0
-191 -20 -190 -139 0
-191 -132 -78 -27 0
-191 -132 -78 -139 0
-191 -132 -190 -27 0
-191 -132 -190 -139 0
82 194 22 134 81 193 0
82 194 22 134 29 141 0
82 194 81 193 29 141 0
22 134 81 193 29 141 0
-82 -22 -81 0
-194 -22 -81 0
-82 -22 -193 0
-194 -22 -193 0
-82 -134 -81 0
-194 -134 -81 0
-82 -134 -193 0
-194 -134 -193 0
-82 -22 -29 0
-194 -22 -29 0
-82 -22 -141 0
-194 -22 -141 0
-82 -134 -29 0
-194 -134 -29 0
-82 -134 -141 0
-194 -134 -141 0
-82 -81 -29 0
-194 -81 -29 0
-82 -81 -141 0
-194 -81 -141 0
-82 -193 -29 0
-194 -193 -29 0
-82 -193 -141 0
-194 -193 -141 0
-22 -81 -29 0
-134 -81 -29 0
-22 -81 -141 0
-134 -81 -141 0
-22 -193 -29 0
-134 -193 -29 0
-22 -193 -141 0
-134 -193 -141 0
135 23 142 30 194 82 195 83 0
-83 -23 0
-83 -135 0
-195 -23 0
-195 -135 0
-83 -82 0
-83 -194 0
-195 -82 0
-195 -194 0
-83 -30 0
-83 -142 0
-195 -30 0
-195 -142 0
-23 -82 0
-83 -23 0
-83 -23 0
-83 -23 0
-23 -30 0
-23 -142 0
-135 -30 0
-135 -142 0
-82 -30 0
-82 -142 0
-194 -30 0
-194 -142 0
139 27 146 34 198 86 199 87 0
-87 -27 0
-87 -139 0
-199 -27 0
-199 -139 0
-87 -86 0
-87 -198 0
-199 -86 0
-199 -198 0
-87 -34 0
-87 -146 0
-199 -34 0
-199 -146 0
-27 -86 0
-87 -27 0
-87 -27 0
-87 -27 0
-27 -34 0
-27 -146 0
-139 -34 0
-139 -146 0
-86 -34 0
-86 -146 0
-198 -34 0
-198 -146 0
140 28 147 35 199 87 200 88 0
-88 -28 0
-88 -140 0
-200 -28 0
-200 -140 0
-88 -87 0
-88 -199 0
-200 -87 0
-200 -199 0
-88 -35 0
-88 -147 0
-200 -35 0
-200 -147 0
-28 -87 0
-88 -28 0
-88 -28 0
-88 -28 0
-28 -35 0
-28 -147 0
-140 -35 0
-140 -147 0
-87 -35 0
-87 -147 0
-199 -35 0
-199 -147 0
90 202 29 141 89 201 0
90 202 29 141 36 148 0
90 202 89 201 36 148 0
29 141 89 201 36 148 0
-90 -29 -89 0
-202 -29 -89 0
-90 -29 -201 0
-202 -29 -201 0
-90 -141 -89 0
-202 -141 -89 0
-90 -141 -201 0
-202 -141 -201 0
-90 -29 -36 0
-202 -29 -36 0
-90 -29 -148 0
-202 -29 -148 0
-90 -141 -36 0
-202 -141 -36 0
-90 -141 -148 0
-202 -141 -148 0
-90 -89 -36 0
-202 -89 -36 0
-90 -89 -148 0
-202 -89 -148 0
-90 -201 -36 0
-202 -201 -36 0
-90 -201 -148 0
-202 -201 -148 0
-29 -89 -36 0
-141 -89 -36 0
-29 -89 -148 0
-141 -89 -148 0
-29 -201 -36 0
-141 -201 -36 0
-29 -201 -148 0
-141 -201 -148 0
91 203 30 142 0
91 203 90 202 0
91 203 37 149 0
30 142 90 202 0
30 142 37 149 0
90 202 37 149 0
-91 -30 -90 -37 0
-91 -30 -90 -149 0
-91 -30 -202 -37 0
-91 -30 -202 -149 0
-91 -142 -90 -37 0
-91 -142 -90 -149 0
-91 -142 -202 -37 0
-91 -142 -202 -149 0
-203 -30 -90 -37 0
-203 -30 -90 -149 0
-203 -30 -202 -37 0
-203 -30 -202 -149 0
-203 -142 -90 -37 0
-203 -142 -90 -149 0
-203 -142 -202 -37 0
-203 -142 -202 -149 0
92 204 31 143 91 203 0
92 204 31 143 38 150 0
92 204 91 203 38 150 0
31 143 91 203 38 150 0
-92 -31 -91 0
-204 -31 -91 0
-92 -31 -203 0
-204 -31 -203 0
-92 -143 -91 0
-204 -143 -91 0
-92 -143 -203 0
-204 -143 -203 0
-92 -31 -38 0
-204 -31 -38 0
-92 -31 -150 0
-204 -31 -150 0
-92 -143 -38 0
-204 -143 -38 0
-92 -143 -150 0
-204 -143 -150 0
-92 -91 -38 0
-204 -91 -38 0
-92 -91 -150 0
-204 -91 -150 0
-92 -203 -38 0
-204 -203 -38 0
-92 -203 -150 0
-204 -203 -150 0
-31 -91 -38 0
-143 -91 -38 0
-31 -91 -150 0
-143 -91 -150 0
-31 -203 -38 0
-143 -203 -38 0
-31 -203 -150 0
-143 -203 -150 0
93 205 32 144 0
93 205 92 204 0
93 205 39 151 0
32 144 92 204 0
32 144 39 151 0
92 204 39 151 0
-93 -32 -92 -39 0
-93 -32 -92 -151 0
-93 -32 -204 -39 0
-93 -32 -204 -151 0
-93 -144 -92 -39 0
-93 -144 -92 -151 0
-93 -144 -204 -39 0
-93 -144 -204 -151 0
-205 -32 -92 -39 0
-205 -32 -92 -151 0
-205 -32 -204 -39 0
-205 -32 -204 -151 0
-205 -144 -92 -39 0
-205 -144 -92 -151 0
-205 -144 -204 -39 0
-205 -144 -204 -151 0
145 33 152 40 205 93 206 94 0
-94 -33 0
-94 -145 0
-206 -33 0
-206 -145 0
-94 -93 0
-94 -205 0
-206 -93 0
-206 -205 0
-94 -40 0
-94 -152 0
-206 -40 0
-206 -152 0
-33 -93 0
-94 -33 0
-94 -33 0
-94 -33 0
-33 -40 0
-33 -152 0
-145 -40 0
-145 -152 0
-93 -40 0
-93 -152 0
-205 -40 0
-205 -152 0
96 208 35 147 95 207 0
96 208 35 147 42 154 0
96 208 95 207 42 154 0
35 147 95 207 42 154 0
-96 -35 -95 0
-208 -35 -95 0
-96 -35 -207 0
-208 -35 -207 0
-96 -147 -95 0
-208 -147 -95 0
-96 -147 -207 0
-208 -147 -207 0
-96 -35 -42 0
-208 -35 -42 0
-96 -35 -154 0
-208 -35 -154 0
-96 -147 -42 0
-208 -147 -42 0
-96 -147 -154 0
-208 -147 -154 0
-96 -95 -42 0
-208 -95 -42 0
-96 -95 -154 0
-208 -95 -154 0
-96 -207 -42 0
-208 -207 -42 0
-96 -207 -154 0
-208 -207 -154 0
-35 -95 -42 0
-147 -95 -42 0
-35 -95 -154 0
-147 -95 -154 0
-35 -207 -42 0
-147 -207 -42 0
-35 -207 -154 0
-147 -207 -154 0
98 210 36 148 0
98 210 97 209 0
98 210 43 155 0
36 148 97 209 0
36 148 43 155 0
97 209 43 155 0
-98 -36 -97 -43 0
-98 -36 -97 -155 0
-98 -36 -209 -43 0
-98 -36 -209 -155 0
-98 -148 -97 -43 0
-98 -148 -97 -155 0
-98 -148 -209 -43 0
-98 -148 -209 -155 0
-210 -36 -97 -43 0
-210 -36 -97 -155 0
-210 -36 -209 -43 0
-210 -36 -209 -155 0
-210 -148 -97 -43 0
-210 -148 -97 -155 0
-210 -148 -209 -43 0
-210 -148 -209 -155 0
150 38 157 45 211 99 212 100 0
-100 -38 0
-100 -150 0
-212 -38 0
-212 -150 0
-100 -99 0
-100 -211 0
-212 -99 0
-212 -211 0
-100 -45 0
-100 -157 0
-212 -45 0
-212 -157 0
-38 -99 0
-100 -38 0
-100 -38 0
-100 -38 0
-38 -45 0
-38 -157 0
-150 -45 0
-150 -157 0
-99 -45 0
-99 -157 0
-211 -45 0
-211 -157 0
101 213 39 151 100 212 0
101 213 39 151 46 158 0
101 213 100 212 46 158 0
39 151 100 212 46 158 0
-101 -39 -100 0
-213 -39 -100 0
-101 -39 -212 0
-213 -39 -212 0
-101 -151 -100 0
-213 -151 -100 0
-101 -151 -212 0
-213 -151 -212 0
-101 -39 -46 0
-213 -39 -46 0
-101 -39 -158 0
-213 -39 -158 0
-101 -151 -46 0
-213 -151 -46 0
-101 -151 -158 0
-213 -151 -158 0
-101 -100 -46 0
-213 -100 -46 0
-101 -100 -158 0
-213 -100 -158 0
-101 -212 -46 0
-213 -212 -46 0
-101 -212 -158 0
-213 -212 -158 0
-39 -100 -46 0
-151 -100 -46 0
-39 -100 -158 0
-151 -100 -158 0
-39 -212 -46 0
-151 -212 -46 0
-39 -212 -158 0
-151 -212 -158 0
106 218 43 155 105 217 0
106 218 43 155 50 162 0
106 218 105 217 50 162 0
43 155 105 217 50 162 0
-106 -43 -105 0
-218 -43 -105 0
-106 -43 -217 0
-218 -43 -217 0
-106 -155 -105 0
-218 -155 -105 0
-106 -155 -217 0
-218 -155 -217 0
-106 -43 -50 0
-218 -43 -50 0
-106 -43 -162 0
-218 -43 -162 0
-106 -155 -50 0
-218 -155 -50 0
-106 -155 -162 0
-218 -155 -162 0
-106 -105 -50 0
-218 -105 -50 0
-106 -105 -162 0
-218 -105 -162 0
-106 -217 -50 0
-218 -217 -50 0
-106 -217 -162 0
-218 -217 -162 0
-43 -105 -50 0
-155 -105 -50 0
-43 -105 -162 0
-155 -105 -162 0
-43 -217 -50 0
-155 -217 -50 0
-43 -217 -162 0
-155 -217 -162 0
108 220 45 157 0
108 220 107 219 0
108 220 52 164 0
45 157 107 219 0
45 157 52 164 0
107 219 52 164 0
-108 -45 -107 -52 0
-108 -45 -107 -164 0
-108 -45 -219 -52 0
-108 -45 -219 -164 0
-108 -157 -107 -52 0
-108 -157 -107 -164 0
-108 -157 -219 -52 0
-108 -157 -219 -164 0
-220 -45 -107 -52 0
-220 -45 -107 -164 0
-220 -45 -219 -52 0
-220 -45 -219 -164 0
-220 -157 -107 -52 0
-220 -157 -107 -164 0
-220 -157 -219 -52 0
-220 -157 -219 -164 0
111 223 48 160 110 222 0
111 223 48 160 55 167 0
111 223 110 222 55 167 0
48 160 110 222 55 167 0
-111 -48 -110 0
-223 -48 -110 0
-111 -48 -222 0
-223 -48 -222 0
-111 -160 -110 0
-223 -160 -110 0
-111 -160 -222 0
-223 -160 -222 0
-111 -48 -55 0
-223 -48 -55 0
-111 -48 -167 0
-223 -48 -167 0
-111 -160 -55 0
-223 -160 -55 0
-111 -160 -167 0
-223 -160 -167 0
-111 -110 -55 0
-223 -110 -55 0
-111 -110 -167 0
-223 -110 -167 0
-111 -222 -55 0
-223 -222 -55 0
-111 -222 -167 0
-223 -222 -167 0
-48 -110 -55 0
-160 -110 -55 0
-48 -110 -167 0
-160 -110 -167 0
-48 -222 -55 0
-160 -222 -55 0
-48 -222 -167 0
-160 -222 -167 0
-113 -169 0
-1 -57 0
-113 -1 0
-169 -57 0
-169 1 0
-113 57 0
-114 -170 0
-114 -1 0
-170 -1 0
-2 -58 0
-2 -113 0
-58 -113 0
-114 -2 0
-170 -58 0
-1 -113 0
-1 2 58 0
-170 2 113 0
-114 113 58 0
-115 -171 0
-115 -2 0
-171 -2 0
-3 -59 0
-3 -114 0
-59 -114 0
-115 -3 0
-171 -59 0
-2 -114 0
-2 3 59 0
-171 3 114 0
-115 114 59 0
-116 -172 0
-116 -3 0
-172 -3 0
-4 -60 0
-4 -115 0
-60 -115 0
-116 -4 0
-172 -60 0
-3 -115 0
-3 4 60 0
-172 4 115 0
-116 115 60 0
-117 -173 0
-117 -4 0
-173 -4 0
-5 -61 0
-5 -116 0
-61 -116 0
-117 -5 0
-173 -61 0
-4 -116 0
-4 5 61 0
-173 5 116 0
-117 116 61 0
-118 -174 0
-118 -5 0
-174 -5 0
-6 -62 0
-6 -117 0
-62 -117 0
-118 -6 0
-174 -62 0
-5 -117 0
-5 6 62 0
-174 6 117 0
-118 117 62 0
-119 -175 0
-119 -6 0
-175 -6 0
-7 -63 0
-7 -118 0
-63 -118 0
-119 -7 0
-175 -63 0
-6 -118 0
-6 7 63 0
-175 7 118 0
-119 118 63 0
-176 -7 0
-64 -119 0
-176 -64 0
-7 -119 0
-7 64 0
-176 119 0
-57 -120 0
-57 -177 0
-120 -177 0
-169 -8 0
-169 -65 0
-8 -65 0
-57 -169 0
-120 -8 0
-177 -65 0
-120 169 65 0
-177 169 8 0
-57 8 65 0
-58 -121 0
-58 -178 0
-58 -8 0
-121 -178 0
-121 -8 0
-178 -8 0
-170 -9 0
-170 -66 0
-170 -120 0
-9 -66 0
-9 -120 0
-66 -120 0
-58 -170 0
-121 -9 0
-178 -66 0
-8 -120 0
-58 9 66 120 0
-121 170 66 120 0
-178 170 9 120 0
-8 170 9 66 0
-59 -122 0
-59 -179 0
-59 -9 0
-122 -179 0
-122 -9 0
-179 -9 0
-171 -10 0
-171 -67 0
-171 -121 0
-10 -67 0
-10 -121 0
-67 -121 0
-59 -171 0
-122 -10 0
-179 -67 0
-9 -121 0
-59 10 67 121 0
-122 171 67 121 0
-179 171 10 121 0
-9 171 10 67 0
-60 -123 0
-60 -180 0
-60 -10 0
-123 -180 0
-123 -10 0
-180 -10 0
-172 -11 0
-172 -68 0
-172 -122 0
-11 -68 0
-11 -122 0
-68 -122 0
-60 -172 0
-123 -11 0
-180 -68 0
-10 -122 0
-60 11 68 122 0
-123 172 68 122 0
-180 172 11 122 0
-10 172 11 68 0
-61 -124 0
-61 -181 0
-61 -11 0
-124 -181 0
-124 -11 0
-181 -11 0
-173 -12 0
-173 -69 0
-173 -123 0
-12 -69 0
-12 -123 0
-69 -123 0
-61 -173 0
-124 -12 0
-181 -69 0
-11 -123 0
-61 12 69 123 0
-124 173 69 123 0
-181 173 12 123 0
-11 173 12 69 0
-62 -125 0
-62 -182 0
-62 -12 0
-125 -182 0
-125 -12 0
-182 -12 0
-174 -13 0
-174 -70 0
-174 -124 0
-13 -70 0
-13 -124 0
-70 -124 0
-62 -174 0
-125 -13 0
-182 -70 0
-12 -124 0
-62 13 70 124 0
-125 174 70 124 0
-182 174 13 124 0
-12 174 13 70 0
-63 -126 0
-63 -183 0
-63 -13 0
-126 -183 0
-126 -13 0
-183 -13 0
-175 -14 0
-175 -71 0
-175 -125 0
-14 -71 0
-14 -125 0
-71 -125 0
-63 -175 0
-126 -14 0
-183 -71 0
-13 -125 0
-63 14 71 125 0
-126 175 71 125 0
-183 175 14 125 0
-13 175 14 71 0
-64 -184 0
-64 -14 0
-184 -14 0
-176 -72 0
-176 -126 0
-72 -126 0
-64 -176 0
-184 -72 0
-14 -126 0
-14 176 72 0
-64 126 72 0
-184 176 126 0
-65 -127 0
-65 -185 0
-127 -185 0
-177 -15 0
-177 -73 0
-15 -73 0
-65 -177 0
-127 -15 0
-185 -73 0
-127 177 73 0
-185 177 15 0
-65 15 73 0
-66 -128 0
-66 -186 0
-66 -15 0
-128 -186 0
-128 -15 0
-186 -15 0
-178 -16 0
-178 -74 0
-178 -127 0
-16 -74 0
-16 -127 0
-74 -127 0
-66 -178 0
-128 -16 0
-186 -74 0
-15 -127 0
-66 16 74 127 0
-128 178 74 127 0
-186 178 16 127 0
-15 178 16 74 0
-67 -129 0
-67 -187 0
-67 -16 0
-129 -187 0
-129 -16 0
-187 -16 0
-179 -17 0
-179 -75 0
-179 -128 0
-17 -75 0
-17 -128 0
-75 -128 0
-67 -179 0
-129 -17 0
-187 -75 0
-16 -128 0
-67 17 75 128 0
-129 179 75 128 0
-187 179 17 128 0
-16 179 17 75 0
-68 -130 0
-68 -188 0
-68 -17 0
-130 -188 0
-130 -17 0
-188 -17 0
-180 -18 0
-180 -76 0
-180 -129 0
-18 -76 0
-18 -129 0
-76 -129 0
-68 -180 0
-130 -18 0
-188 -76 0
-17 -129 0
-68 18 76 129 0
-130 180 76 129 0
-188 180 18 129 0
-17 180 18 76 0
-69 -131 0
-69 -189 0
-69 -18 0
-131 -189 0
-131 -18 0
-189 -18 0
-181 -19 0
-181 -77 0
-181 -130 0
-19 -77 0
-19 -130 0
-77 -130 0
-69 -181 0
-131 -19 0
-189 -77 0
-18 -130 0
-69 19 77 130 0
-131 181 77 130 0
-189 181 19 130 0
-18 181 19 77 0
-70 -132 0
-70 -190 0
-70 -19 0
-132 -190 0
-132 -19 0
-190 -19 0
-182 -20 0
-182 -78 0
-182 -131 0
-20 -78 0
-20 -131 0
-78 -131 0
-70 -182 0
-132 -20 0
-190 -78 0
-19 -131 0
-70 20 78 131 0
-132 182 78 131 0
-190 182 20 131 0
-19 182 20 78 0
-71 -133 0
-71 -191 0
-71 -20 0
-133 -191 0
-133 -20 0
-191 -20 0
-183 -21 0
-183 -79 0
-183 -132 0
-21 -79 0
-21 -132 0
-79 -132 0
-71 -183 0
-133 -21 0
-191 -79 0
-20 -132 0
-71 21 79 132 0
-133 183 79 132 0
-191 183 21 132 0
-20 183 21 79 0
-72 -192 0
-72 -21 0
-192 -21 0
-184 -80 0
-184 -133 0
-80 -133 0
-72 -184 0
-192 -80 0
-21 -133 0
-21 184 80 0
-72 133 80 0
-192 184 133 0
-73 -134 0
-73 -193 0
-134 -193 0
-185 -22 0
-185 -81 0
-22 -81 0
-73 -185 0
-134 -22 0
-193 -81 0
-134 185 81 0
-193 185 22 0
-73 22 81 0
-74 -135 0
-74 -194 0
-74 -22 0
-135 -194 0
-135 -22 0
-194 -22 0
-186 -23 0
-186 -82 0
-186 -134 0
-23 -82 0
-23 -134 0
-82 -134 0
-74 -186 0
-135 -23 0
-194 -82 0
-22 -134 0
-74 23 82 134 0
-135 186 82 134 0
-194 186 23 134 0
-22 186 23 82 0
-75 -136 0
-75 -195 0
-75 -23 0
-136 -195 0
-136 -23 0
-195 -23 0
-187 -24 0
-187 -83 0
-187 -135 0
-24 -83 0
-24 -135 0
-83 -135 0
-75 -187 0
-136 -24 0
-195 -83 0
-23 -135 0
-75 24 83 135 0
-136 187 83 135 0
-195 187 24 135 0
-23 187 24 83 0
-76 -137 0
-76 -196 0
-76 -24 0
-137 -196 0
-137 -24 0
-196 -24 0
-188 -25 0
-188 -84 0
-188 -136 0
-25 -84 0
-25 -136 0
-84 -136 0
-76 -188 0
-137 -25 0
-196 -84 0
-24 -136 0
-76 25 84 136 0
-137 188 84 136 0
-196 188 25 136 0
-24 188 25 84 0
-77 -138 0
-77 -197 0
-77 -25 0
-138 -197 0
-138 -25 0
-197 -25 0
-189 -26 0
-189 -85 0
-189 -137 0
-26 -85 0
-26 -137 0
-85 -137 0
-77 -189 0
-138 -26 0
-197 -85 0
-25 -137 0
-77 26 85 137 0
-138 189 85 137 0
-197 189 26 137 0
-25 189 26 85 0
-78 -139 0
-78 -198 0
-78 -26 0
-139 -198 0
-139 -26 0
-198 -26 0
-190 -27 0
-190 -86 0
-190 -138 0
-27 -86 0
-27 -138 0
-86 -138 0
-78 -190 0
-139 -27 0
-198 -86 0
-26 -138 0
-78 27 86 138 0
-139 190 86 138 0
-198 190 27 138 0
-26 190 27 86 0
-79 -140 0
-79 -199 0
-79 -27 0
-140 -199 0
-140 -27 0
-199 -27 0
-191 -28 0
-191 -87 0
-191 -139 0
-28 -87 0
-28 -139 0
-87 -139 0
-79 -191 0
-140 -28 0
-199 -87 0
-27 -139 0
-79 28 87 139 0
-140 191 87 139 0
-199 191 28 139 0
-27 191 28 87 0
-80 -200 0
-80 -28 0
-200 -28 0
-192 -88 0
-192 -140 0
-88 -140 0
-80 -192 0
-200 -88 0
-28 -140 0
-28 192 88 0
-80 140 88 0
-200 192 140 0
-81 -141 0
-81 -201 0
-141 -201 0
-193 -29 0
-193 -89 0
-29 -89 0
-81 -193 0
-141 -29 0
-201 -89 0
-141 193 89 0
-201 193 29 0
-81 29 89 0
-82 -142 0
-82 -202 0
-82 -29 0
-142 -202 0
-142 -29 0
-202 -29 0
-194 -30 0
-194 -90 0
-194 -141 0
-30 -90 0
-30 -141 0
-90 -141 0
-82 -194 0
-142 -30 0
-202 -90 0
-29 -141 0
-82 30 90 141 0
-142 194 90 141 0
-202 194 30 141 0
-29 194 30 90 0
-83 -143 0
-83 -203 0
-83 -30 0
-143 -203 0
-143 -30 0
-203 -30 0
-195 -31 0
-195 -91 0
-195 -142 0
-31 -91 0
-31 -142 0
-91 -142 0
-83 -195 0
-143 -31 0
-203 -91 0
-30 -142 0
-83 31 91 142 0
-143 195 91 142 0
-203 195 31 142 0
-30 195 31 91 0
-84 -144 0
-84 -204 0
-84 -31 0
-144 -204 0
-144 -31 0
-204 -31 0
-196 -32 0
-196 -92 0
-196 -143 0
-32 -92 0
-32 -143 0
-92 -143 0
-84 -196 0
-144 -32 0
-204 -92 0
-31 -143 0
-84 32 92 143 0
-144 196 92 143 0
-204 196 32 143 0
-31 196 32 92 0
-85 -145 0
-85 -205 0
-85 -32 0
-145 -205 0
-145 -32 0
-205 -32 0
-197 -33 0
-197 -93 0
-197 -144 0
-33 -93 0
-33 -144 0
-93 -144 0
-85 -197 0
-145 -33 0
-205 -93 0
-32 -144 0
-85 33 93 144 0
-145 197 93 144 0
-205 197 33 144 0
-32 197 33 93 0
-86 -146 0
-86 -206 0
-86 -33 0
-146 -206 0
-146 -33 0
-206 -33 0
-198 -34 0
-198 -94 0
-198 -145 0
-34 -94 0
-34 -145 0
-94 -145 0
-86 -198 0
-146 -34 0
-206 -94 0
-33 -145 0
-86 34 94 145 0
-146 198 94 145 0
-206 198 34 145 0
-33 198 34 94 0
-87 -147 0
-87 -207 0
-87 -34 0
-147 -207 0
-147 -34 0
-207 -34 0
-199 -35 0
-199 -95 0
-199 -146 0
-35 -95 0
-35 -146 0
-95 -146 0
-87 -199 0
-147 -35 0
-207 -95 0
-34 -146 0
-87 35 95 146 0
-147 199 95 146 0
-207 199 35 146 0
-34 199 35 95 0
-88 -208 0
-88 -35 0
-208 -35 0
-200 -96 0
-200 -147 0
-96 -147 0
-88 -200 0
-208 -96 0
-35 -147 0
-35 200 96 0
-88 147 96 0
-208 200 147 0
-89 -148 0
-89 -209 0
-148 -209 0
-201 -36 0
-201 -97 0
-36 -97 0
-89 -201 0
-148 -36 0
-209 -97 0
-148 201 97 0
-209 201 36 0
-89 36 97 0
-90 -149 0
-90 -210 0
-90 -36 0
-149 -210 0
-149 -36 0
-210 -36 0
-202 -37 0
-202 -98 0
-202 -148 0
-37 -98 0
-37 -148 0
-98 -148 0
-90 -202 0
-149 -37 0
-210 -98 0
-36 -148 0
-90 37 98 148 0
-149 202 98 148 0
-210 202 37 148 0
-36 202 37 98 0
-91 -150 0
-91 -211 0
-91 -37 0
-150 -211 0
-150 -37 0
-211 -37 0
-203 -38 0
-203 -99 0
-203 -149 0
-38 -99 0
-38 -149 0
-99 -149 0
-91 -203 0
-150 -38 0
-211 -99 0
-37 -149 0
-91 38 99 149 0
-150 203 99 149 0
-211 203 38 149 0
-37 203 38 99 0
-92 -151 0
-92 -212 0
-92 -38 0
-151 -212 0
-151 -38 0
-212 -38 0
-204 -39 0
-204 -100 0
-204 -150 0
-39 -100 0
-39 -150 0
-100 -150 0
-92 -204 0
-151 -39 0
-212 -100 0
-38 -150 0
-92 39 100 150 0
-151 204 100 150 0
-212 204 39 150 0
-38 204 39 100 0
-93 -152 0
-93 -213 0
-93 -39 0
-152 -213 0
-152 -39 0
-213 -39 0
-205 -40 0
-205 -101 0
-205 -151 0
-40 -101 0
-40 -151 0
-101 -151 0
-93 -205 0
-152 -40 0
-213 -101 0
-39 -151 0
-93 40 101 151 0
-152 205 101 151 0
-213 205 40 151 0
-39 205 40 101 0
-94 -153 0
-94 -214 0
-94 -40 0
-153 -214 0
-153 -40 0
-214 -40 0
-206 -41 0
-206 -102 0
-206 -152 0
-41 -102 0
-41 -152 0
-102 -152 0
-94 -206 0
-153 -41 0
-214 -102 0
-40 -152 0
-94 41 102 152 0
-153 206 102 152 0
-214 206 41 152 0
-40 206 41 102 0
-95 -154 0
-95 -215 0
-95 -41 0
-154 -215 0
-154 -41 0
-215 -41 0
-207 -42 0
-207 -103 0
-207 -153 0
-42 -103 0
-42 -153 0
-103 -153 0
-95 -207 0
-154 -42 0
-215 -103 0
-41 -153 0
-95 42 103 153 0
-154 207 103 153 0
-215 207 42 153 0
-41 207 42 103 0
-96 -216 0
-96 -42 0
-216 -42 0
-208 -104 0
-208 -154 0
-104 -154 0
-96 -208 0
-216 -104 0
-42 -154 0
-42 208 104 0
-96 154 104 0
-216 208 154 0
-97 -155 0
-97 -217 0
-155 -217 0
-209 -43 0
-209 -105 0
-43 -105 0
-97 -209 0
-155 -43 0
-217 -105 0
-155 209 105 0
-217 209 43 0
-97 43 105 0
-98 -156 0
-98 -218 0
-98 -43 0
-156 -218 0
-156 -43 0
-218 -43 0
-210 -44 0
-210 -106 0
-210 -155 0
-44 -106 0
-44 -155 0
-106 -155 0
-98 -210 0
-156 -44 0
-218 -106 0
-43 -155 0
-98 44 106 155 0
-156 210 106 155 0
-218 210 44 155 0
-43 210 44 106 0
-99 -157 0
-99 -219 0
-99 -44 0
-157 -219 0
-157 -44 0
-219 -44 0
-211 -45 0
-211 -107 0
-211 -156 0
-45 -107 0
-45 -156 0
-107 -156 0
-99 -211 0
-157 -45 0
-219 -107 0
-44 -156 0
-99 45 107 156 0
-157 211 107 156 0
-219 211 45 156 0
-44 211 45 107 0
-100 -158 0
-100 -220 0
-100 -45 0
-158 -220 0
-158 -45 0
-220 -45 0
-212 -46 0
-212 -108 0
-212 -157 0
-46 -108 0
-46 -157 0
-108 -157 0
-100 -212 0
-158 -46 0
-220 -108 0
-45 -157 0
-100 46 108 157 0
-158 212 108 157 0
-220 212 46 157 0
-45 212 46 108 0
-101 -159 0
-101 -221 0
-101 -46 0
-159 -221 0
-159 -46 0
-221 -46 0
-213 -47 0
-213 -109 0
-213 -158 0
-47 -109 0
-47 -158 0
-109 -158 0
-101 -213 0
-159 -47 0
-221 -109 0
-46 -158 0
-101 47 109 158 0
-159 213 109 158 0
-221 213 47 158 0
-46 213 47 109 0
-102 -160 0
-102 -222 0
-102 -47 0
-160 -222 0
-160 -47 0
-222 -47 0
-214 -48 0
-214 -110 0
-214 -159 0
-48 -110 0
-48 -159 0
-110 -159 0
-102 -214 0
-160 -48 0
-222 -110 0
-47 -159 0
-102 48 110 159 0
-160 214 110 159 0
-222 214 48 159 0
-47 214 48 110 0
-103 -161 0
-103 -223 0
-103 -48 0
-161 -223 0
-161 -48 0
-223 -48 0
-215 -49 0
-215 -111 0
-215 -160 0
-49 -111 0
-49 -160 0
-111 -160 0
-103 -215 0
-161 -49 0
-223 -111 0
-48 -160 0
-103 49 111 160 0
-161 215 111 160 0
-223 215 49 160 0
-48 215 49 111 0
-104 -224 0
-104 -49 0
-224 -49 0
-216 -112 0
-216 -161 0
-112 -161 0
-104 -216 0
-224 -112 0
-49 -161 0
-49 216 112 0
-104 161 112 0
-224 216 161 0
-105 -162 0
-217 -50 0
-105 -217 0
-162 -50 0
-162 217 0
-105 50 0
-106 -163 0
-106 -50 0
-163 -50 0
-218 -51 0
-218 -162 0
-51 -162 0
-106 -218 0
-163 -51 0
-50 -162 0
-163 218 162 0
-106 51 162 0
-50 51 218 0
-107 -164 0
-107 -51 0
-164 -51 0
-219 -52 0
-219 -163 0
-52 -163 0
-107 -219 0
-164 -52 0
-51 -163 0
-164 219 163 0
-107 52 163 0
-51 52 219 0
-108 -165 0
-108 -52 0
-165 -52 0
-220 -53 0
-220 -164 0
-53 -164 0
-108 -220 0
-165 -53 0
-52 -164 0
-165 220 164 0
-108 53 164 0
-52 53 220 0
-109 -166 0
-109 -53 0
-166 -53 0
-221 -54 0
-221 -165 0
-54 -165 0
-109 -221 0
-166 -54 0
-53 -165 0
-166 221 165 0
-109 54 165 0
-53 54 221 0
-110 -167 0
-110 -54 0
-167 -54 0
-222 -55 0
-222 -166 0
-55 -166 0
-110 -222 0
-167 -55 0
-54 -166 0
-167 222 166 0
-110 55 166 0
-54 55 222 0
-111 -168 0
-111 -55 0
-168 -55 0
-223 -56 0
-223 -167 0
-56 -167 0
-111 -223 0
-168 -56 0
-55 -167 0
-168 223 167 0
-111 56 167 0
-55 56 223 0
-112 -56 0
-224 -168 0
-112 -224 0
-56 -168 0
-56 224 0
-112 168 0
1 2 3 4 -5 6 -7 -8 9 10 11 12 -13 14 -15 -16 17 -18 19 20 21 22 23 -24 25 26 27 28 29 30 31 32 33 -34 35 -36 -37 38 -39 40 41 -42 43 44 45 46 -47 48 49 50 51 52 53 54 55 56 -57 58 59 60 61 -62 63 -64 65 66 67 68 69 70 71 -72 73 74 -75 76 77 -78 79 -80 81 82 83 84 -85 86 87 88 89 90 91 -92 93 94 -95 96 97 98 99 100 -101 102 103 -104 105 106 -107 108 109 110 -111 112 -113 114 115 116 117 118 119 120 121 122 123 124 125 126 127 128 129 130 131 -132 133 134 135 136 137 -138 139 -140 -141 -142 143 -144 145 146 147 148 149 150 151 152 153 154 -155 156 -157 158 159 160 -161 162 -163 164 -165 -166 -167 168 169 -170 171 172 -173 174 -175 176 177 178 179 180 -181 182 183 184 -185 186 187 -188 189 190 -191 192 -193 194 195 196 197 198 199 200 201 202 -203 204 205 -206 207 208 -209 210 211 212 213 -214 215 216 217 -218 219 -220 221 222 223 224  0
-1 2 3 4 -5 6 -7 8 9 10 11 12 -13 14 -15 -16 17 -18 19 20 21 22 23 -24 25 26 27 28 29 30 31 32 33 -34 35 -36 -37 38 -39 40 41 -42 43 44 45 46 -47 48 49 50 51 52 53 54 55 56 57 -58 59 60 61 -62 63 -64 65 66 67 68 69 70 71 -72 73 74 -75 76 77 -78 79 -80 81 82 83 84 -85 86 87 88 89 90 91 -92 93 94 -95 96 97 98 99 100 -101 102 103 -104 105 106 -107 108 109 110 -111 112 113 114 115 116 117 118 119 -120 121 122 123 124 125 126 127 128 129 130 131 -132 133 134 135 136 137 -138 139 -140 -141 -142 143 -144 145 146 147 148 149 150 151 152 153 154 -155 156 -157 158 159 160 -161 162 -163 164 -165 -166 -167 168 -169 170 171 172 -173 174 -175 176 177 178 179 180 -181 182 183 184 -185 186 187 -188 189 190 -191 192 -193 194 195 196 197 198 199 200 201 202 -203 204 205 -206 207 208 -209 210 211 212 213 -214 215 216 217 -218 219 -220 221 222 223 224  0
